     Program PWSCF v.6.5 starts on 21Jan2021 at 10:11:53

     R & G space division:  proc/nbgrp/npool/nimage =       2
     Waiting for input...
     Reading input from standard input
     Message from routine read_cards :
     DEPRECATED: no units specified in ATOMIC_POSITIONS card
     Message from routine read_cards :
     ATOMIC_POSITIONS: units set to alat

     Current dimensions of program PWSCF are:
     Max number of different atomic species (ntypx) = 10
     Max number of k-points (npk) =  40000
     Max angular momentum in pseudopotentials (lmaxx) =  3
               file Co.pz-nd-rrkjus.UPF: wavefunction(s)  4S 3D renormalized

     Subspace diagonalization in iterative solution of the eigenvalue problem:
     a serial algorithm will be used

     bravais-lattice index     =            4
     lattice parameter (alat)  =       4.7377  a.u.
     unit-cell volume          =     708.2427 (a.u.)^3
     number of atoms/cell      =            2
     number of atomic types    =            1
     number of electrons       =        18.00
     number of Kohn-Sham states=           25
     kinetic-energy cutoff     =      30.0000  Ry
     charge density cutoff     =     250.0000  Ry
     convergence threshold     =      1.0E-12
     mixing beta               =       0.3000
     number of iterations used =            8  plain     mixing
     Exchange-correlation= SLA PZ NOGX NOGC
                           (   1   1   0   0   0   0   0)

     celldm(1)=   4.737732  celldm(2)=   0.000000  celldm(3)=   7.690240
     celldm(4)=   0.000000  celldm(5)=   0.000000  celldm(6)=   0.000000

     crystal axes: (cart. coord. in units of alat)
               a(1) = (   1.000000   0.000000   0.000000 )
               a(2) = (  -0.500000   0.866025   0.000000 )
               a(3) = (   0.000000   0.000000   7.690240 )

     reciprocal axes: (cart. coord. in units 2 pi/alat)
               b(1) = (  1.000000  0.577350 -0.000000 )
               b(2) = (  0.000000  1.154701  0.000000 )
               b(3) = (  0.000000 -0.000000  0.130035 )

     PseudoPot. # 1 for Co read from file:
     /home/edmondium/quantum/pseudo/Co.pz-nd-rrkjus.UPF
     MD5 check sum: fae6bc0a00aacc25185164d8aa4130d9
     Pseudo is Ultrasoft + core correction, Zval =  9.0
     Generated by new atomic code, or converted to UPF format
     Using radial grid of  961 points,  6 beta functions with:
                l(1) =   0
                l(2) =   0
                l(3) =   1
                l(4) =   1
                l(5) =   2
                l(6) =   2
     Q(r) pseudized with 0 coefficients

     atomic species   valence    mass     pseudopotential
        Co             9.00    58.93319     Co( 1.00)

     Starting magnetic structure
     atomic species   magnetization
        Co          -1.000

     No symmetry found

   Cartesian axes

     site n.     atom                  positions (alat units)
         1           Co  tau(   1) = (   0.0000000   0.0000000   0.0000000  )
         2           Co  tau(   2) = (   0.3330000   0.6670000   0.2500000  )

     number of k points=  2052  Marzari-Vanderbilt smearing, width (Ry)=  0.0200

     Number of k-points >= 100: set verbosity='high' to print them.

     Check: negative core charge=   -0.000054

     Initial potential from superposition of free atoms

     starting charge   17.99923, renormalised to   18.00000
     Starting wfcs are random

     Self-consistent Calculation

     iteration #  1     ecut=    30.00 Ry     beta= 0.30
     CG style diagonalization
     ethr =  1.00E-02,  avg # of iterations =  9.7

     total energy              =    -144.38845419 Ry
     Harris-Foulkes estimate   =    -144.42641822 Ry
     estimated scf accuracy    <       3.94506778 Ry

     total magnetization       =    -4.38 Bohr mag/cell
     absolute magnetization    =     4.38 Bohr mag/cell

[...]

     iteration #  5     ecut=    30.00 Ry     beta= 0.30
     CG style diagonalization
     c_bands:  1 eigenvalues not converged
     c_bands:  1 eigenvalues not converged
     c_bands:  1 eigenvalues not converged
     c_bands:  1 eigenvalues not converged
     c_bands:  1 eigenvalues not converged
     c_bands:  1 eigenvalues not converged
     ethr =  2.57E-04,  avg # of iterations =  3.6

[...]

     iteration # 17     ecut=    30.00 Ry     beta= 0.30
     CG style diagonalization
     c_bands:  1 eigenvalues not converged
     ethr =  9.19E-10,  avg # of iterations =  3.2

[...]

     total energy              =    -145.76732352 Ry
     Harris-Foulkes estimate   =    -145.76732351 Ry
     estimated scf accuracy    <          1.2E-12 Ry

[...]

     iteration # 25     ecut=    30.00 Ry     beta= 0.30
     CG style diagonalization
     ethr =  1.00E-13,  avg # of iterations =  3.0

     Magnetic moment per site:
     atom:    1    charge:    2.4498    magn:   -0.0000    constr:    0.0000
     atom:    2    charge:    2.4209    magn:   -0.0000    constr:    0.0000

     End of self-consistent calculation

     Number of k-points >= 100: set verbosity='high' to print the bands.

     the Fermi energy is    -1.3925 ev

!    total energy              =    -145.76732353 Ry
     Harris-Foulkes estimate   =    -145.76732352 Ry
     estimated scf accuracy    <          2.7E-13 Ry

     The total energy is the sum of the following terms:

     one-electron contribution =   -1056.32608287 Ry
     hartree contribution      =     541.44965217 Ry
     xc contribution           =     -69.52974726 Ry
     ewald contribution        =     438.63785939 Ry
     smearing contrib. (-TS)   =       0.00099503 Ry

     total magnetization       =    -0.00 Bohr mag/cell
     absolute magnetization    =     0.00 Bohr mag/cell

     convergence has been achieved in  25 iterations

     Writing output data file /home/edmondium/quantum/tempdir/pwscf.save/

     General routines

     Parallel routines

   This run was terminated on:  12:22:59  21Jan2021

   JOB DONE.