     Program PWSCF v.6.5 starts on 28Jan2021 at  9:39:20

     R & G space division:  proc/nbgrp/npool/nimage =       4
     Waiting for input...
     Reading input from standard input
     Message from routine read_cards :
     DEPRECATED: no units specified in ATOMIC_POSITIONS card
     Message from routine read_cards :
     ATOMIC_POSITIONS: units set to alat

     Current dimensions of program PWSCF are:
     Max number of different atomic species (ntypx) = 10
     Max number of k-points (npk) =  40000
     Max angular momentum in pseudopotentials (lmaxx) =  3
               file Ni.pz-nd-rrkjus.UPF: wavefunction(s)  4S renormalized

     Subspace diagonalization in iterative solution of the eigenvalue problem:
     a serial algorithm will be used

     bravais-lattice index     =            2
     lattice parameter (alat)  =       6.6594  a.u.
     unit-cell volume          =      73.8319 (a.u.)^3
     number of atoms/cell      =            4
     number of atomic types    =            1
     number of electrons       =        40.00
     number of Kohn-Sham states=           25
     kinetic-energy cutoff     =      42.0000  Ry
     charge density cutoff     =     462.0000  Ry
     convergence threshold     =      1.0E-12
     mixing beta               =       0.3000
     number of iterations used =            8  plain     mixing
     Exchange-correlation= SLA PZ NOGX NOGC
                           (   1   1   0   0   0   0   0)

     celldm(1)=   6.659395  celldm(2)=   0.000000  celldm(3)=   0.000000
     celldm(4)=   0.000000  celldm(5)=   0.000000  celldm(6)=   0.000000

     crystal axes: (cart. coord. in units of alat)
               a(1) = (  -0.500000   0.000000   0.500000 )
               a(2) = (   0.000000   0.500000   0.500000 )
               a(3) = (  -0.500000   0.500000   0.000000 )

     reciprocal axes: (cart. coord. in units 2 pi/alat)
               b(1) = ( -1.000000 -1.000000  1.000000 )
               b(2) = (  1.000000  1.000000  1.000000 )
               b(3) = ( -1.000000  1.000000 -1.000000 )

     PseudoPot. # 1 for Ni read from file:
     /home/edmondium/quantum/pseudo/Ni.pz-nd-rrkjus.UPF
     MD5 check sum: 1dd41f782accaa3d7277678a275dfa91
     Pseudo is Ultrasoft + core correction, Zval = 10.0
     Generated by new atomic code, or converted to UPF format
     Using radial grid of 1203 points,  6 beta functions with:
                l(1) =   0
                l(2) =   0
                l(3) =   1
                l(4) =   1
                l(5) =   2
                l(6) =   2
     Q(r) pseudized with 0 coefficients

     atomic species   valence    mass     pseudopotential
        Ni            10.00    58.69340     Ni( 1.00)

     Starting magnetic structure
     atomic species   magnetization
        Ni          -1.000

      6 Sym. Ops. (no inversion) found

   Cartesian axes

     site n.     atom                  positions (alat units)
         1           Ni  tau(   1) = (   0.0000000   0.0000000   0.0000000  )
         2           Ni  tau(   2) = (   0.0000000   1.7550000   1.7550000  )
         3           Ni  tau(   3) = (   1.7550000   0.0000000   1.7550000  )
         4           Ni  tau(   4) = (   1.7550000   1.7550000   0.0000000  )

     number of k points=   417  Marzari-Vanderbilt smearing, width (Ry)=  0.0200

     Number of k-points >= 100: set verbosity='high' to print them.

     Initial potential from superposition of free atoms

     starting charge   39.99865, renormalised to   40.00000
     Starting wfcs are random

     Self-consistent Calculation

     iteration #  1     ecut=    42.00 Ry     beta= 0.30
     CG style diagonalization
     ethr =  1.00E-02,  avg # of iterations =  7.6

     total energy              =    -323.79542767 Ry
     Harris-Foulkes estimate   =    -320.23767087 Ry
     estimated scf accuracy    <      11.97014411 Ry

     total magnetization       =    -2.07 Bohr mag/cell
     absolute magnetization    =     2.07 Bohr mag/cell

[...]

     iteration #  5     ecut=    42.00 Ry     beta= 0.30
     CG style diagonalization
     c_bands:  1 eigenvalues not converged
     c_bands:  1 eigenvalues not converged
     c_bands:  1 eigenvalues not converged
     c_bands:  1 eigenvalues not converged
     ethr =  6.05E-05,  avg # of iterations =  3.5

[...]

     iteration #  7     ecut=    42.00 Ry     beta= 0.30
     CG style diagonalization
     c_bands:  1 eigenvalues not converged
     ethr =  7.23E-08,  avg # of iterations =  3.7

[...]

     total energy              =    -327.55435886 Ry
     Harris-Foulkes estimate   =    -327.55435885 Ry
     estimated scf accuracy    <          1.2E-11 Ry

[...]

     iteration # 14     ecut=    42.00 Ry     beta= 0.30
     CG style diagonalization
     ethr =  1.00E-13,  avg # of iterations =  3.0

     Magnetic moment per site:
     atom:    1    charge:    6.2016    magn:   -0.0000    constr:    0.0000
     atom:    2    charge:    6.2007    magn:   -0.0000    constr:    0.0000
     atom:    3    charge:    6.2007    magn:   -0.0000    constr:    0.0000
     atom:    4    charge:    6.2007    magn:   -0.0000    constr:    0.0000

     End of self-consistent calculation

     Number of k-points >= 100: set verbosity='high' to print the bands.

     the Fermi energy is    69.0151 ev

!    total energy              =    -327.55435888 Ry
     Harris-Foulkes estimate   =    -327.55435886 Ry
     estimated scf accuracy    <          4.6E-13 Ry

     The total energy is the sum of the following terms:

     one-electron contribution =     132.16775577 Ry
     hartree contribution      =      56.35535978 Ry
     xc contribution           =    -136.13145330 Ry
     ewald contribution        =    -379.94617150 Ry
     smearing contrib. (-TS)   =       0.00015037 Ry

     total magnetization       =    -0.00 Bohr mag/cell
     absolute magnetization    =     0.00 Bohr mag/cell

     convergence has been achieved in  14 iterations

     Writing output data file /home/edmondium/quantum/tempdir/pwscf.save/

     General routines

     Parallel routines

   This run was terminated on:   9:43: 6  28Jan2021

   JOB DONE.