     Program PWSCF v.6.5 starts on 13Jan2021 at 21:37:42

     R & G space division:  proc/nbgrp/npool/nimage =       2
     Waiting for input...
     Reading input from standard input

     Current dimensions of program PWSCF are:
     Max number of different atomic species (ntypx) = 10
     Max number of k-points (npk) =  40000
     Max angular momentum in pseudopotentials (lmaxx) =  3

     Subspace diagonalization in iterative solution of the eigenvalue problem:
     a serial algorithm will be used

     bravais-lattice index     =            4
     lattice parameter (alat)  =       5.5762  a.u.
     unit-cell volume          =    1329.5399 (a.u.)^3
     number of atoms/cell      =            1
     number of atomic types    =            1
     number of electrons       =        12.00
     number of Kohn-Sham states=           25
     kinetic-energy cutoff     =      10.0000  Ry
     charge density cutoff     =      40.0000  Ry
     convergence threshold     =      1.0E-12
     mixing beta               =       0.3000
     number of iterations used =            8  plain     mixing
     Exchange-correlation= SLA PW PBE PBE
                           (   1   4   3   4   0   0   0)

     celldm(1)=   5.576204  celldm(2)=   0.000000  celldm(3)=   8.854312
     celldm(4)=   0.000000  celldm(5)=   0.000000  celldm(6)=   0.000000

     crystal axes: (cart. coord. in units of alat)
               a(1) = (   1.000000   0.000000   0.000000 )
               a(2) = (  -0.500000   0.866025   0.000000 )
               a(3) = (   0.000000   0.000000   8.854312 )

     reciprocal axes: (cart. coord. in units 2 pi/alat)
               b(1) = (  1.000000  0.577350 -0.000000 )
               b(2) = (  0.000000  1.154701  0.000000 )
               b(3) = (  0.000000 -0.000000  0.112939 )

     PseudoPot. # 1 for Ti read from file:
     /home/edmondium/Documents/qe-6.7/pseudo/Ti.pbe-sp-van_ak.UPF
     MD5 check sum: f98fea3e8887528921fefa5636a534ca
     Pseudo is Ultrasoft, Zval = 12.0
     Generated by new atomic code, or converted to UPF format
     Using radial grid of  851 points,  6 beta functions with:
                l(1) =   0
                l(2) =   0
                l(3) =   1
                l(4) =   1
                l(5) =   2
                l(6) =   2
     Q(r) pseudized with  8 coefficients,  rinner =    1.000   1.000   1.000
                                                       1.000   1.000

     atomic species   valence    mass     pseudopotential
        Ti            12.00    47.86700     Ti( 1.00)

     24 Sym. Ops., with inversion, found

   Cartesian axes

     site n.     atom                  positions (alat units)
         1           Ti  tau(   1) = (   0.0000000   0.0000000   0.0000000  )

     number of k points=   270  Marzari-Vanderbilt smearing, width (Ry)=  0.0200

     Number of k-points >= 100: set verbosity='high' to print them.

     Initial potential from superposition of free atoms

     starting charge   10.99996, renormalised to   12.00000

     negative rho (up, down):  6.435E-01 0.000E+00
     Starting wfcs are random

     Self-consistent Calculation

     iteration #  1     ecut=    10.00 Ry     beta= 0.30
     CG style diagonalization
     ethr =  1.00E-02,  avg # of iterations =  9.2

     negative rho (up, down):  2.271E-01 0.000E+00

     total energy              =    -107.84226546 Ry
     Harris-Foulkes estimate   =    -113.93044483 Ry
     estimated scf accuracy    <      12.34274192 Ry

[...]

     iteration # 14     ecut=    10.00 Ry     beta= 0.30
     CG style diagonalization
     c_bands:  1 eigenvalues not converged
     ethr =  4.99E-04,  avg # of iterations =  3.8

[...]

     iteration # 27     ecut=    10.00 Ry     beta= 0.30
     CG style diagonalization
     c_bands:  1 eigenvalues not converged
     ethr =  3.18E-07,  avg # of iterations =  3.0

[...]

     total energy              =    -111.16559877 Ry
     Harris-Foulkes estimate   =    -111.16559877 Ry
     estimated scf accuracy    <          1.1E-12 Ry

     iteration # 37     ecut=    10.00 Ry     beta= 0.30
     CG style diagonalization
     ethr =  1.00E-13,  avg # of iterations =  3.0

     negative rho (up, down):  1.456E-01 0.000E+00

     End of self-consistent calculation

     Number of k-points >= 100: set verbosity='high' to print the bands.

     the Fermi energy is    -3.7061 ev

!    total energy              =    -111.16559877 Ry
     Harris-Foulkes estimate   =    -111.16559877 Ry
     estimated scf accuracy    <          3.9E-13 Ry

     The total energy is the sum of the following terms:

     one-electron contribution =    -516.43461903 Ry
     hartree contribution      =     250.25685622 Ry
     xc contribution           =     -12.66512725 Ry
     ewald contribution        =     167.68071780 Ry
     smearing contrib. (-TS)   =      -0.00342652 Ry

     convergence has been achieved in  37 iterations

     Writing output data file /home/edmondium/Documents/qe-6.7/tempdir/pwscf.save/

     General routines

     Parallel routines

   This run was terminated on:  21:46:30  13Jan2021

   JOB DONE.